c *********************************
c * Circuit generated by BenCGen
c *
c * Parity_150
c *
c * Ports with 1 gate(s): 1
c * Ports with 2 gate(s): 150
c * Total gates: 151
c *********************************
p cnf 301 601
1 153 0
-1 -153 0
1 -152 0
153 -152 0
-1 -153 152 0
1 2 -154 0
-1 2 154 0
1 -2 154 0
-1 -2 -154 0
3 4 -155 0
-3 4 155 0
3 -4 155 0
-3 -4 -155 0
5 6 -156 0
-5 6 156 0
5 -6 156 0
-5 -6 -156 0
7 8 -157 0
-7 8 157 0
7 -8 157 0
-7 -8 -157 0
9 10 -158 0
-9 10 158 0
9 -10 158 0
-9 -10 -158 0
11 12 -159 0
-11 12 159 0
11 -12 159 0
-11 -12 -159 0
13 14 -160 0
-13 14 160 0
13 -14 160 0
-13 -14 -160 0
15 16 -161 0
-15 16 161 0
15 -16 161 0
-15 -16 -161 0
17 18 -162 0
-17 18 162 0
17 -18 162 0
-17 -18 -162 0
19 20 -163 0
-19 20 163 0
19 -20 163 0
-19 -20 -163 0
21 22 -164 0
-21 22 164 0
21 -22 164 0
-21 -22 -164 0
23 24 -165 0
-23 24 165 0
23 -24 165 0
-23 -24 -165 0
25 26 -166 0
-25 26 166 0
25 -26 166 0
-25 -26 -166 0
27 28 -167 0
-27 28 167 0
27 -28 167 0
-27 -28 -167 0
29 30 -168 0
-29 30 168 0
29 -30 168 0
-29 -30 -168 0
31 32 -169 0
-31 32 169 0
31 -32 169 0
-31 -32 -169 0
33 34 -170 0
-33 34 170 0
33 -34 170 0
-33 -34 -170 0
35 36 -171 0
-35 36 171 0
35 -36 171 0
-35 -36 -171 0
37 38 -172 0
-37 38 172 0
37 -38 172 0
-37 -38 -172 0
39 40 -173 0
-39 40 173 0
39 -40 173 0
-39 -40 -173 0
41 42 -174 0
-41 42 174 0
41 -42 174 0
-41 -42 -174 0
43 44 -175 0
-43 44 175 0
43 -44 175 0
-43 -44 -175 0
45 46 -176 0
-45 46 176 0
45 -46 176 0
-45 -46 -176 0
47 48 -177 0
-47 48 177 0
47 -48 177 0
-47 -48 -177 0
49 50 -178 0
-49 50 178 0
49 -50 178 0
-49 -50 -178 0
51 52 -179 0
-51 52 179 0
51 -52 179 0
-51 -52 -179 0
53 54 -180 0
-53 54 180 0
53 -54 180 0
-53 -54 -180 0
55 56 -181 0
-55 56 181 0
55 -56 181 0
-55 -56 -181 0
57 58 -182 0
-57 58 182 0
57 -58 182 0
-57 -58 -182 0
59 60 -183 0
-59 60 183 0
59 -60 183 0
-59 -60 -183 0
61 62 -184 0
-61 62 184 0
61 -62 184 0
-61 -62 -184 0
63 64 -185 0
-63 64 185 0
63 -64 185 0
-63 -64 -185 0
65 66 -186 0
-65 66 186 0
65 -66 186 0
-65 -66 -186 0
67 68 -187 0
-67 68 187 0
67 -68 187 0
-67 -68 -187 0
69 70 -188 0
-69 70 188 0
69 -70 188 0
-69 -70 -188 0
71 72 -189 0
-71 72 189 0
71 -72 189 0
-71 -72 -189 0
73 74 -190 0
-73 74 190 0
73 -74 190 0
-73 -74 -190 0
75 76 -191 0
-75 76 191 0
75 -76 191 0
-75 -76 -191 0
77 78 -192 0
-77 78 192 0
77 -78 192 0
-77 -78 -192 0
79 80 -193 0
-79 80 193 0
79 -80 193 0
-79 -80 -193 0
81 82 -194 0
-81 82 194 0
81 -82 194 0
-81 -82 -194 0
83 84 -195 0
-83 84 195 0
83 -84 195 0
-83 -84 -195 0
85 86 -196 0
-85 86 196 0
85 -86 196 0
-85 -86 -196 0
87 88 -197 0
-87 88 197 0
87 -88 197 0
-87 -88 -197 0
89 90 -198 0
-89 90 198 0
89 -90 198 0
-89 -90 -198 0
91 92 -199 0
-91 92 199 0
91 -92 199 0
-91 -92 -199 0
93 94 -200 0
-93 94 200 0
93 -94 200 0
-93 -94 -200 0
95 96 -201 0
-95 96 201 0
95 -96 201 0
-95 -96 -201 0
97 98 -202 0
-97 98 202 0
97 -98 202 0
-97 -98 -202 0
99 100 -203 0
-99 100 203 0
99 -100 203 0
-99 -100 -203 0
101 102 -204 0
-101 102 204 0
101 -102 204 0
-101 -102 -204 0
103 104 -205 0
-103 104 205 0
103 -104 205 0
-103 -104 -205 0
105 106 -206 0
-105 106 206 0
105 -106 206 0
-105 -106 -206 0
107 108 -207 0
-107 108 207 0
107 -108 207 0
-107 -108 -207 0
109 110 -208 0
-109 110 208 0
109 -110 208 0
-109 -110 -208 0
111 112 -209 0
-111 112 209 0
111 -112 209 0
-111 -112 -209 0
113 114 -210 0
-113 114 210 0
113 -114 210 0
-113 -114 -210 0
115 116 -211 0
-115 116 211 0
115 -116 211 0
-115 -116 -211 0
117 118 -212 0
-117 118 212 0
117 -118 212 0
-117 -118 -212 0
119 120 -213 0
-119 120 213 0
119 -120 213 0
-119 -120 -213 0
121 122 -214 0
-121 122 214 0
121 -122 214 0
-121 -122 -214 0
123 124 -215 0
-123 124 215 0
123 -124 215 0
-123 -124 -215 0
125 126 -216 0
-125 126 216 0
125 -126 216 0
-125 -126 -216 0
127 128 -217 0
-127 128 217 0
127 -128 217 0
-127 -128 -217 0
129 130 -218 0
-129 130 218 0
129 -130 218 0
-129 -130 -218 0
131 132 -219 0
-131 132 219 0
131 -132 219 0
-131 -132 -219 0
133 134 -220 0
-133 134 220 0
133 -134 220 0
-133 -134 -220 0
135 136 -221 0
-135 136 221 0
135 -136 221 0
-135 -136 -221 0
137 138 -222 0
-137 138 222 0
137 -138 222 0
-137 -138 -222 0
139 140 -223 0
-139 140 223 0
139 -140 223 0
-139 -140 -223 0
141 142 -224 0
-141 142 224 0
141 -142 224 0
-141 -142 -224 0
143 144 -225 0
-143 144 225 0
143 -144 225 0
-143 -144 -225 0
145 146 -226 0
-145 146 226 0
145 -146 226 0
-145 -146 -226 0
147 148 -227 0
-147 148 227 0
147 -148 227 0
-147 -148 -227 0
149 150 -228 0
-149 150 228 0
149 -150 228 0
-149 -150 -228 0
154 155 -229 0
-154 155 229 0
154 -155 229 0
-154 -155 -229 0
156 157 -230 0
-156 157 230 0
156 -157 230 0
-156 -157 -230 0
158 159 -231 0
-158 159 231 0
158 -159 231 0
-158 -159 -231 0
160 161 -232 0
-160 161 232 0
160 -161 232 0
-160 -161 -232 0
162 163 -233 0
-162 163 233 0
162 -163 233 0
-162 -163 -233 0
164 165 -234 0
-164 165 234 0
164 -165 234 0
-164 -165 -234 0
166 167 -235 0
-166 167 235 0
166 -167 235 0
-166 -167 -235 0
168 169 -236 0
-168 169 236 0
168 -169 236 0
-168 -169 -236 0
170 171 -237 0
-170 171 237 0
170 -171 237 0
-170 -171 -237 0
172 173 -238 0
-172 173 238 0
172 -173 238 0
-172 -173 -238 0
174 175 -239 0
-174 175 239 0
174 -175 239 0
-174 -175 -239 0
176 177 -240 0
-176 177 240 0
176 -177 240 0
-176 -177 -240 0
178 179 -241 0
-178 179 241 0
178 -179 241 0
-178 -179 -241 0
180 181 -242 0
-180 181 242 0
180 -181 242 0
-180 -181 -242 0
182 183 -243 0
-182 183 243 0
182 -183 243 0
-182 -183 -243 0
184 185 -244 0
-184 185 244 0
184 -185 244 0
-184 -185 -244 0
186 187 -245 0
-186 187 245 0
186 -187 245 0
-186 -187 -245 0
188 189 -246 0
-188 189 246 0
188 -189 246 0
-188 -189 -246 0
190 191 -247 0
-190 191 247 0
190 -191 247 0
-190 -191 -247 0
192 193 -248 0
-192 193 248 0
192 -193 248 0
-192 -193 -248 0
194 195 -249 0
-194 195 249 0
194 -195 249 0
-194 -195 -249 0
196 197 -250 0
-196 197 250 0
196 -197 250 0
-196 -197 -250 0
198 199 -251 0
-198 199 251 0
198 -199 251 0
-198 -199 -251 0
200 201 -252 0
-200 201 252 0
200 -201 252 0
-200 -201 -252 0
202 203 -253 0
-202 203 253 0
202 -203 253 0
-202 -203 -253 0
204 205 -254 0
-204 205 254 0
204 -205 254 0
-204 -205 -254 0
206 207 -255 0
-206 207 255 0
206 -207 255 0
-206 -207 -255 0
208 209 -256 0
-208 209 256 0
208 -209 256 0
-208 -209 -256 0
210 211 -257 0
-210 211 257 0
210 -211 257 0
-210 -211 -257 0
212 213 -258 0
-212 213 258 0
212 -213 258 0
-212 -213 -258 0
214 215 -259 0
-214 215 259 0
214 -215 259 0
-214 -215 -259 0
216 217 -260 0
-216 217 260 0
216 -217 260 0
-216 -217 -260 0
218 219 -261 0
-218 219 261 0
218 -219 261 0
-218 -219 -261 0
220 221 -262 0
-220 221 262 0
220 -221 262 0
-220 -221 -262 0
222 223 -263 0
-222 223 263 0
222 -223 263 0
-222 -223 -263 0
224 225 -264 0
-224 225 264 0
224 -225 264 0
-224 -225 -264 0
226 227 -265 0
-226 227 265 0
226 -227 265 0
-226 -227 -265 0
229 230 -266 0
-229 230 266 0
229 -230 266 0
-229 -230 -266 0
231 232 -267 0
-231 232 267 0
231 -232 267 0
-231 -232 -267 0
233 234 -268 0
-233 234 268 0
233 -234 268 0
-233 -234 -268 0
235 236 -269 0
-235 236 269 0
235 -236 269 0
-235 -236 -269 0
237 238 -270 0
-237 238 270 0
237 -238 270 0
-237 -238 -270 0
239 240 -271 0
-239 240 271 0
239 -240 271 0
-239 -240 -271 0
241 242 -272 0
-241 242 272 0
241 -242 272 0
-241 -242 -272 0
243 244 -273 0
-243 244 273 0
243 -244 273 0
-243 -244 -273 0
245 246 -274 0
-245 246 274 0
245 -246 274 0
-245 -246 -274 0
247 248 -275 0
-247 248 275 0
247 -248 275 0
-247 -248 -275 0
249 250 -276 0
-249 250 276 0
249 -250 276 0
-249 -250 -276 0
251 252 -277 0
-251 252 277 0
251 -252 277 0
-251 -252 -277 0
253 254 -278 0
-253 254 278 0
253 -254 278 0
-253 -254 -278 0
255 256 -279 0
-255 256 279 0
255 -256 279 0
-255 -256 -279 0
257 258 -280 0
-257 258 280 0
257 -258 280 0
-257 -258 -280 0
259 260 -281 0
-259 260 281 0
259 -260 281 0
-259 -260 -281 0
261 262 -282 0
-261 262 282 0
261 -262 282 0
-261 -262 -282 0
263 264 -283 0
-263 264 283 0
263 -264 283 0
-263 -264 -283 0
265 228 -284 0
-265 228 284 0
265 -228 284 0
-265 -228 -284 0
266 267 -285 0
-266 267 285 0
266 -267 285 0
-266 -267 -285 0
268 269 -286 0
-268 269 286 0
268 -269 286 0
-268 -269 -286 0
270 271 -287 0
-270 271 287 0
270 -271 287 0
-270 -271 -287 0
272 273 -288 0
-272 273 288 0
272 -273 288 0
-272 -273 -288 0
274 275 -289 0
-274 275 289 0
274 -275 289 0
-274 -275 -289 0
276 277 -290 0
-276 277 290 0
276 -277 290 0
-276 -277 -290 0
278 279 -291 0
-278 279 291 0
278 -279 291 0
-278 -279 -291 0
280 281 -292 0
-280 281 292 0
280 -281 292 0
-280 -281 -292 0
282 283 -293 0
-282 283 293 0
282 -283 293 0
-282 -283 -293 0
285 286 -294 0
-285 286 294 0
285 -286 294 0
-285 -286 -294 0
287 288 -295 0
-287 288 295 0
287 -288 295 0
-287 -288 -295 0
289 290 -296 0
-289 290 296 0
289 -290 296 0
-289 -290 -296 0
291 292 -297 0
-291 292 297 0
291 -292 297 0
-291 -292 -297 0
293 284 -298 0
-293 284 298 0
293 -284 298 0
-293 -284 -298 0
294 295 -299 0
-294 295 299 0
294 -295 299 0
-294 -295 -299 0
296 297 -300 0
-296 297 300 0
296 -297 300 0
-296 -297 -300 0
299 300 -301 0
-299 300 301 0
299 -300 301 0
-299 -300 -301 0
301 298 -151 0
-301 298 151 0
301 -298 151 0
-301 -298 -151 0
